50, 654
49, 54
30, 35
30, 35
34, 39
5, 10
19, 24
15, 20
22, 27
12, 17
49, 54
31, 36
31, 36
26, 31
48, 53
14, 19
24, 29
24, 29
35, 40
49, 54
37, 42
24, 29
7, 12
5, 10
50, 55
12, 17
6, 11
42, 47
18, 23
12, 17
14, 19
23, 28
20, 25
14, 19
36, 41
26, 31
40, 45
37, 42
34, 39
14, 19
22, 27
5, 10
40, 45
29, 34
31, 36
31, 36
49, 54
37, 42
8, 13
36, 41
3, 8
